python/teste/teste18
3 3
2 9 1 8 0 4
0 1 2 9 1 3
0 10 2 4 1 6
